p edge 45 109
e 1 3
e 1 4
e 1 6
e 1 22
e 1 25
e 1 34
e 2 4
e 2 7
e 2 8
e 2 9
e 2 13
e 2 15
e 2 16
e 2 20
e 2 22
e 2 41
e 3 6
e 3 9
e 3 15
e 3 25
e 3 34
e 4 5
e 4 6
e 4 7
e 4 8
e 4 11
e 4 14
e 4 18
e 4 20
e 4 22
e 4 39
e 4 40
e 5 10
e 5 12
e 5 18
e 5 20
e 5 30
e 5 40
e 6 8
e 6 9
e 6 15
e 6 22
e 6 31
e 7 8
e 7 9
e 7 13
e 7 15
e 7 16
e 7 20
e 7 41
e 8 9
e 8 14
e 8 15
e 8 19
e 8 31
e 9 13
e 9 15
e 9 20
e 9 31
e 10 12
e 10 17
e 10 18
e 10 30
e 10 38
e 10 45
e 11 12
e 11 14
e 11 18
e 11 23
e 11 24
e 11 30
e 11 39
e 12 18
e 12 30
e 12 33
e 13 15
e 13 19
e 13 20
e 13 36
e 14 18
e 14 39
e 14 42
e 14 44
e 15 20
e 15 29
e 15 31
e 16 22
e 17 21
e 17 27
e 17 28
e 17 37
e 17 38
e 18 39
e 19 36
e 21 27
e 21 28
e 21 37
e 23 24
e 23 25
e 23 34
e 25 34
e 26 33
e 26 35
e 27 28
e 27 37
e 28 37
e 32 43
e 33 35
e 38 45
